NAME : single
TYPE : ATSP
DIMENSION : 5
EDGE_WEIGHT_TYPE : EXPLICIT
EDGE_WEIGHT_FORMAT : FULL_MATRIX
EDGE_WEIGHT_SECTION
0 50376 50362 50343 176 
0 0 192 166 50000 
0 192 0 79 50000 
0 166 79 0 50000 
0 50000 50000 50000 0 
EOF